CapLotSizing_PM/src/Instancias/TCHSHT/25i6p2m/NBA07.OUT
 CG ITER, OVMR, OVMRUB =           1   72842.9140625   72842.9062500
 CG ITER, OVMR, OVMRUB =           2   69111.8125000   69111.8046875
 CG ITER, OVMR, OVMRUB =           3   64296.6328125   64353.5976562
 CG ITER, OVMR, OVMRUB =           4   56726.3593750   64353.5976562
 CG ITER, OVMR, OVMRUB =           5   55281.6953125   64353.5976562
 CG ITER, OVMR, OVMRUB =           6   54969.7539062   64353.5976562
 CG ITER, OVMR, OVMRUB =           7   54835.0351562   64353.5976562
 CG ITER, OVMR, OVMRUB =           8   54654.0429688   64353.5976562
 CG ITER, OVMR, OVMRUB =           9   54443.4726562   64353.5976562
 CG ITER, OVMR, OVMRUB =          10   54280.9335938   64353.5976562
 CG ITER, OVMR, OVMRUB =          11   54123.1171875   64353.5976562
 CG ITER, OVMR, OVMRUB =          12   53974.6875000   64353.5976562
 CG ITER, OVMR, OVMRUB =          13   53860.2304688   64353.5976562
 CG ITER, OVMR, OVMRUB =          14   53811.6132812   64353.5976562
 CG ITER, OVMR, OVMRUB =          15   53664.3398438   64353.5976562
 CG ITER, OVMR, OVMRUB =          16   53601.1640625   64353.5976562
 CG ITER, OVMR, OVMRUB =          17   53549.7890625   64353.5976562
 CG ITER, OVMR, OVMRUB =          18   53448.8828125   64353.5976562
 CG ITER, OVMR, OVMRUB =          19   53352.6250000   62101.4101562
 CG ITER, OVMR, OVMRUB =          20   53275.4765625   62101.4101562
 CG ITER, OVMR, OVMRUB =          21   53206.4687500   62101.4101562
 CG ITER, OVMR, OVMRUB =          22   53117.4648438   62101.4101562
 CG ITER, OVMR, OVMRUB =          23   53057.1328125   62101.4101562
 CG ITER, OVMR, OVMRUB =          24   52987.3945312   62101.4101562
 CG ITER, OVMR, OVMRUB =          25   52938.9687500   62101.4101562
 CG ITER, OVMR, OVMRUB =          26   52879.4726562   58622.5312500
 CG ITER, OVMR, OVMRUB =          27   52849.7421875   58622.5312500
 CG ITER, OVMR, OVMRUB =          28   52819.8515625   58622.5312500
 CG ITER, OVMR, OVMRUB =          29   52758.7109375   58622.5312500
 CG ITER, OVMR, OVMRUB =          30   52735.3867188   58622.5312500
 CG ITER, OVMR, OVMRUB =          31   52666.7109375   58622.5312500
 CG ITER, OVMR, OVMRUB =          32   52627.8281250   58622.5312500
 CG ITER, OVMR, OVMRUB =          33   52589.2656250   58622.5312500
 CG ITER, OVMR, OVMRUB =          34   52522.9492188   58622.5312500
 CG ITER, OVMR, OVMRUB =          35   52514.2343750   58622.5312500
 CG ITER, OVMR, OVMRUB =          36   52480.4179688   58622.5312500
 CG ITER, OVMR, OVMRUB =          37   52458.1718750   58622.5312500
 CG ITER, OVMR, OVMRUB =          38   52445.0507812   58622.5312500
 CG ITER, OVMR, OVMRUB =          39   52424.4492188   58622.5312500
 CG ITER, OVMR, OVMRUB =          40   52401.2421875   58622.5312500
 CG ITER, OVMR, OVMRUB =          41   52385.9179688   58622.5312500
 CG ITER, OVMR, OVMRUB =          42   52368.4453125   58622.5312500
 CG ITER, OVMR, OVMRUB =          43   52341.2460938   58622.5312500
 CG ITER, OVMR, OVMRUB =          44   52304.3945312   58622.5312500
 CG ITER, OVMR, OVMRUB =          45   52298.3476562   58622.5312500
 CG ITER, OVMR, OVMRUB =          46   52293.3554688   57596.4179688
 CG ITER, OVMR, OVMRUB =          47   52283.9140625   57596.4179688
 CG ITER, OVMR, OVMRUB =          48   52276.1640625   57596.4179688
 CG ITER, OVMR, OVMRUB =          49   52242.3085938   57596.4179688
 CG ITER, OVMR, OVMRUB =          50   52238.2812500   57596.4179688
 CG ITER, OVMR, OVMRUB =          51   52193.6171875   57596.4179688
 CG ITER, OVMR, OVMRUB =          52   52185.9335938   57596.4179688
 CG ITER, OVMR, OVMRUB =          53   52182.3242188   57596.4179688
 CG ITER, OVMR, OVMRUB =          54   52177.0000000   57596.4179688
 CG ITER, OVMR, OVMRUB =          55   52171.5468750   57596.4179688
 CG ITER, OVMR, OVMRUB =          56   52171.7109375   57596.4179688
 CG ITER, OVMR, OVMRUB =          57   52170.0742188   57596.4179688
 CG ITER, OVMR, OVMRUB =          58   52168.3945312   57207.6562500
 CG ITER, OVMR, OVMRUB =          59   52164.4062500   57207.6562500
 CG ITER, OVMR, OVMRUB =          60   52163.2851562   57207.6562500
 CG ITER, OVMR, OVMRUB =          61   52163.3828125   57207.6562500
 CG ITER, OVMR, OVMRUB =          62   52162.1093750   57207.6562500
 CG ITER, OVMR, OVMRUB =          63   52163.3281250   57207.6562500
 CG ITER, OVMR, OVMRUB =          64   52161.9765625   57207.6562500
 CG ITER, OVMR, OVMRUB =          65   52162.0976562   56634.1015625
 CG ITER, OVMR, OVMRUB =          66   52161.4921875   56634.1015625
 CG ITER, OVMR, OVMRUB =          67   52161.6015625   56634.1015625
 CG ITER, OVMR, OVMRUB =          68   52161.3710938   56634.1015625
 CG ITER, OVMR, OVMRUB =          69   52161.1289062   55852.4687500
 CG ITER, OVMR, OVMRUB =          70   52161.8281250   55852.4687500
 CG ITER, OVMR, OVMRUB =          71   52161.5781250   55852.4687500
 CG ITER, OVMR, OVMRUB =          72   52161.2226562   55852.4687500
 CG ITER, OVMR, OVMRUB =          73   52160.6054688   55852.4687500
 CG ITER, OVMR, OVMRUB =          74   52162.0234375   55852.4687500
 CG ITER, OVMR, OVMRUB =          75   52161.9609375   55852.4687500
 CG ITER, OVMR, OVMRUB =          76   52161.7148438   55852.4687500
 CG ITER, OVMR, OVMRUB =          77   52161.7148438   53399.3046875
OVLB =   52161.7148438 OVLUB =   53399.3046875 TIME =      20.3199997
